0 4281
2401 4181
4802 4104
7203 4042
9604 3979
12005 3938
14406 3898
16807 3858
19208 3832
21609 3802
24010 3765
26411 3731
28812 3701
31213 3684
33614 3657
36015 3628
38416 3613
40817 3598
43218 3588
45619 3567
48020 3554
50421 3553
52822 3539
55223 3533
57624 3531
62426 3529
64827 3523
67228 3522
69629 3521
72030 3515
74431 3514
76832 3510
91238 3506
93639 3498
108045 3494
110446 3488
112847 3483
115248 3475
117649 3472
120050 3471
122451 3468
124852 3463
127253 3460
129654 3458
141659 3457
144060 3455
146461 3454
148862 3447
151263 3446
